# Solution for model r10_t9_m8_0
# Finished Task: 9 / 9
# Makespan: 441.0, Total Distance: 635.0, Total Time: 0.0214
# R O S F
0 0 14 0.0 0.0
1 1 17 0.0 0.0
2 2 12 0.0 0.0
3 3 13 0.0 0.0
4 4 18 0.0 0.0
5 5 -1 0.0 0.0
6 6 -1 0.0 0.0
7 7 -1 0.0 0.0
8 8 -1 0.0 0.0
9 9 -1 0.0 0.0
10 3 -1 310.0 345.0
11 0 -1 383.0 406.0
12 2 16 181.0 207.0
13 3 10 115.0 146.0
14 0 11 289.0 310.0
15 1 -1 410.0 441.0
16 2 -1 374.0 403.0
17 1 15 180.0 216.0
18 4 -1 373.0 394.0
